(set-info :smt-lib-version 2.6)
(set-logic QF_UFLRA)
(set-info :source |
MathSat group

|)
(set-info :category "random")
(set-info :status sat)
(declare-fun x0 () Real)
(declare-fun x1 () Real)
(declare-fun x2 () Real)
(declare-fun x3 () Real)
(declare-fun x4 () Real)
(declare-fun x5 () Real)
(declare-fun x6 () Real)
(declare-fun x7 () Real)
(declare-fun x8 () Real)
(declare-fun x9 () Real)
(declare-fun x10 () Real)
(declare-fun x11 () Real)
(declare-fun x12 () Real)
(declare-fun x13 () Real)
(declare-fun x14 () Real)
(declare-fun x15 () Real)
(declare-fun x16 () Real)
(declare-fun x17 () Real)
(declare-fun x18 () Real)
(declare-fun x19 () Real)
(declare-fun x20 () Real)
(declare-fun x21 () Real)
(declare-fun x22 () Real)
(declare-fun x23 () Real)
(declare-fun x24 () Real)
(declare-fun x25 () Real)
(declare-fun x26 () Real)
(declare-fun x27 () Real)
(declare-fun x28 () Real)
(declare-fun x29 () Real)
(declare-fun x30 () Real)
(declare-fun x31 () Real)
(declare-fun x32 () Real)
(declare-fun x33 () Real)
(declare-fun x34 () Real)
(declare-fun x35 () Real)
(declare-fun x36 () Real)
(declare-fun x37 () Real)
(declare-fun x38 () Real)
(declare-fun x39 () Real)
(declare-fun f0_1 (Real) Real)
(declare-fun f0_2 (Real Real) Real)
(declare-fun f0_3 (Real Real Real) Real)
(declare-fun f0_4 (Real Real Real Real) Real)
(declare-fun P0 () Bool)
(declare-fun P1 () Bool)
(declare-fun P2 () Bool)
(declare-fun P3 () Bool)
(declare-fun P4 () Bool)
(declare-fun P5 () Bool)
(declare-fun P6 () Bool)
(declare-fun P7 () Bool)
(declare-fun P8 () Bool)
(declare-fun P9 () Bool)
(declare-fun P10 () Bool)
(declare-fun P11 () Bool)
(declare-fun P12 () Bool)
(declare-fun P13 () Bool)
(declare-fun P14 () Bool)
(declare-fun P15 () Bool)
(declare-fun P16 () Bool)
(declare-fun P17 () Bool)
(declare-fun P18 () Bool)
(declare-fun P19 () Bool)
(declare-fun P20 () Bool)
(declare-fun P21 () Bool)
(declare-fun P22 () Bool)
(declare-fun P23 () Bool)
(declare-fun P24 () Bool)
(declare-fun P25 () Bool)
(declare-fun P26 () Bool)
(declare-fun P27 () Bool)
(declare-fun P28 () Bool)
(declare-fun P29 () Bool)
(declare-fun P30 () Bool)
(declare-fun P31 () Bool)
(declare-fun P32 () Bool)
(declare-fun P33 () Bool)
(declare-fun P34 () Bool)
(declare-fun P35 () Bool)
(declare-fun P36 () Bool)
(declare-fun P37 () Bool)
(declare-fun P38 () Bool)
(declare-fun P39 () Bool)
(assert (let ((?v_94 (<= (- (- (* 53 x26) (* 32 x2)) (* 41 x1)) 54)) (?v_157 (distinct (+ (- (* 23 x25) (* 29 x35)) (* 46 x29)) 14)) (?v_192 (<= (- (- (* 4 x37) (* 5 x39)) (* 55 x34)) 51)) (?v_68 (* 39 x5)) (?v_7 (<= (- (- (* 47 x15) (* 25 x7)) (* 16 x11)) 12)) (?v_155 (< (+ (- (* 31 x23) (* 12 x2)) (* 20 x9)) 34)) (?v_17 (<= (+ (- (* 8 x3) (* 19 x34)) (* 23 x14)) 44)) (?v_51 (<= (+ (- (* 17 x12) (* 7 x12)) (* 42 x30)) 1)) (?v_95 (= x0 (f0_2 x11 x6))) (?v_133 (distinct (f0_2 x11 x23) x20)) (?v_29 (distinct (f0_1 x37) x25)) (?v_174 (= x14 x18)) (?v_31 (f0_1 x19)) (?v_8 (f0_1 x2))) (let ((?v_21 (= ?v_31 ?v_8)) (?v_30 (f0_1 x20))) (let ((?v_14 (= (f0_1 x6) ?v_30)) (?v_119 (distinct x2 (f0_2 x29 x36))) (?v_53 (distinct x22 ?v_8)) (?v_28 (distinct x34 (f0_2 x22 x7))) (?v_69 (distinct ?v_8 (f0_1 x29))) (?v_184 (distinct x20 ?v_30)) (?v_32 (f0_1 x30))) (let ((?v_52 (= ?v_31 ?v_32)) (?v_166 (= ?v_32 (f0_2 x15 x28))) (?v_63 (f0_1 x21))) (let ((?v_100 (distinct ?v_63 (f0_2 x28 x5))) (?v_41 (f0_1 x1))) (let ((?v_35 (distinct (f0_2 x34 x13) ?v_41)) (?v_67 (distinct (f0_2 x6 x2) ?v_41)) (?v_177 (distinct (f0_1 x14) ?v_32)) (?v_50 (= (f0_2 x21 x13) (f0_2 x34 x36))) (?v_64 (= (f0_2 x7 x28) x26)) (?v_109 (= (f0_2 x35 x13) (f0_1 x38))) (?v_169 (distinct (f0_1 x12) (f0_1 x28))) (?v_85 (distinct x19 ?v_8)) (?v_27 (distinct x6 (f0_2 x38 x18))) (?v_23 (distinct (f0_1 x26) x10)) (?v_112 (distinct x21 (f0_2 x28 x14))) (?v_4 (distinct (f0_1 x23) x13)) (?v_13 (f0_1 x32))) (let ((?v_44 (= x27 ?v_13)) (?v_19 (= (f0_1 x13) (f0_1 x36))) (?v_183 (= x30 (f0_1 x22))) (?v_57 (distinct (f0_1 x24) ?v_63)) (?v_129 (= (f0_2 x17 x20) (f0_1 x33))) (?v_39 (= (f0_2 x33 x26) (f0_2 x24 x32))) (?v_83 (= (f0_2 x11 x26) (f0_2 x29 x2))) (?v_34 (= ?v_13 (f0_2 x25 x27))) (?v_98 (distinct (f0_2 x24 x20) (f0_2 x25 x31))) (?v_89 (distinct (f0_2 x4 x10) (f0_2 x33 x2))) (?v_59 (= (f0_1 x0) ?v_30)) (?v_26 (= x24 ?v_32)) (?v_185 (distinct (f0_2 x7 x35) (f0_1 x7))) (?v_117 (= x19 (f0_1 x25))) (?v_40 (not P19)) (?v_115 (not P20)) (?v_140 (not ?v_35)) (?v_2 (not P28)) (?v_0 (not ?v_14)) (?v_136 (not ?v_155)) (?v_104 (not P25)) (?v_37 (not ?v_94)) (?v_6 (not P18)) (?v_126 (not P27)) (?v_5 (not P36)) (?v_1 (not ?v_4)) (?v_9 (not ?v_119))) (let ((?v_25 (not ?v_34)) (?v_45 (not P1)) (?v_56 (not ?v_169)) (?v_61 (not P10)) (?v_55 (not ?v_7)) (?v_20 (not P21)) (?v_36 (not ?v_29)) (?v_16 (not P2)) (?v_137 (not ?v_44)) (?v_81 (not P33)) (?v_60 (not ?v_112)) (?v_125 (not ?v_185)) (?v_114 (not ?v_21)) (?v_144 (not P17)) (?v_18 (not ?v_17)) (?v_122 (not ?v_85)) (?v_48 (not P12)) (?v_43 (not P6)) (?v_65 (not P37)) (?v_159 (not ?v_174)) (?v_111 (not ?v_23)) (?v_132 (not P24)) (?v_131 (not P29)) (?v_79 (not ?v_26)) (?v_46 (not ?v_28)) (?v_70 (not ?v_39)) (?v_88 (not ?v_67)) (?v_84 (not P16)) (?v_77 (not P3)) (?v_74 (not P11)) (?v_168 (not P13)) (?v_58 (not ?v_83)) (?v_76 (not ?v_95)) (?v_62 (not P32)) (?v_162 (not ?v_53)) (?v_204 (or ?v_64 ?v_57)) (?v_113 (not ?v_64)) (?v_90 (not P9)) (?v_93 (not ?v_59)) (?v_91 (not P5)) (?v_99 (not ?v_183)) (?v_116 (not ?v_50)) (?v_145 (not ?v_89)) (?v_130 (not P15)) (?v_175 (not P35)) (?v_173 (not ?v_98)) (?v_161 (not ?v_100)) (?v_178 (not P26)) (?v_147 (not P34)) (?v_110 (not ?v_109)) (?v_139 (not ?v_19)) (?v_191 (not P4)) (?v_120 (not P30)) (?v_160 (not ?v_57)) (?v_172 (not P7)) (?v_149 (not P8)) (?v_150 (not ?v_51)) (?v_171 (not P22)) (?v_154 (not ?v_129)) (?v_198 (not ?v_27)) (?v_194 (not ?v_69)) (?v_146 (not ?v_133)) (?v_152 (not ?v_177)) (?v_200 (not P23)) (?v_188 (not P38)) (?v_206 (not ?v_117)) (?v_176 (not ?v_52)) (?v_182 (not P14)) (?v_193 (not ?v_166)) (?v_179 (not ?v_184)) (?v_181 (not ?v_157)) (?v_205 (not P31)) (?v_3 (distinct (+ (* 46 x7) (* 28 x20) (* 11 x34)) 42)) (?v_86 (< (+ (- 0 (* 36 x31)) (* 49 x7)) 15)) (?v_138 (< (+ (* 35 x30) (* 32 x4) (* 25 x20)) 50))) (let ((?v_123 (not ?v_3)) (?v_167 (not ?v_86)) (?v_203 (not ?v_138)) (?v_189 (distinct (- (- (* (- 20) x20) (* 11 x21)) (* 11 x18)) (- 39)))) (let ((?v_10 (not ?v_189)) (?v_124 (<= (- (+ (* (- 55) x7) (* 21 x23)) (* 2 x37)) 5))) (let ((?v_15 (not ?v_124)) (?v_12 (distinct (- (+ (* 14 x15) (* 33 x7)) (* 48 x34)) (- 33))) (?v_11 (<= (+ (- (* (- 37) x20) (* 49 x3)) (* 39 x30)) 17)) (?v_33 (<= (- (- (* 36 x23) ?v_68) (* 8 x39)) (- 49)))) (let ((?v_196 (not ?v_33)) (?v_49 (* (- 22) x10))) (let ((?v_101 (= (+ ?v_49 (* 8 x4)) 12)) (?v_164 (not ?v_11)) (?v_96 (<= (- (+ (* (- 42) x11) (* 49 x10)) (* 16 x36)) 39)) (?v_42 (< (- (+ (* (- 13) x17) (* 17 x2)) (* 9 x9)) (- 23))) (?v_66 (= (- (- (* (- 6) x6) (* 20 x8)) (* 25 x6)) 40)) (?v_72 (< (- (- (* (- 19) x31) (* 56 x32)) (* 31 x24)) (- 31))) (?v_103 (= (- (- (* (- 11) x31) (* 24 x17)) (* 45 x37)) (- 50)))) (let ((?v_22 (not ?v_103)) (?v_38 (<= (- (+ (* (- 31) x23) (* 14 x6)) (* 46 x14)) (- 49))) (?v_47 (<= (+ (* (- 3) x6) x38 (* 27 x18)) 37)) (?v_54 (< (+ (* (- 52) x26) (* 22 x34) (* 30 x6)) (- 24))) (?v_24 (not ?v_12)) (?v_71 (= (- (+ (* (- 2) x20) (* 22 x1)) (* 45 x29)) 41))) (let ((?v_107 (not ?v_71)) (?v_92 (not ?v_42)) (?v_180 (not ?v_47)) (?v_80 (<= (+ (- ?v_49 (* 4 x13)) (* 30 x18)) 8))) (let ((?v_151 (not ?v_80)) (?v_105 (< (- (- 0 (* 56 x5)) (* 42 x11)) (- 47)))) (let ((?v_108 (not ?v_105)) (?v_73 (<= (- (- (* (- 3) x19) 0) (* 6 x26)) (- 32)))) (let ((?v_158 (not ?v_73)) (?v_135 (<= (+ (* (- 12) x18) (* 55 x22) (* 51 x18)) (- 43))) (?v_156 (not ?v_66)) (?v_199 (< (- (- (* 39 x6) ?v_68) (* 34 x8)) (- 8)))) (let ((?v_102 (not ?v_199)) (?v_143 (not ?v_54)) (?v_78 (not ?v_72)) (?v_75 (< (+ (* (- 16) x5) (* 55 x30) (* 33 x10)) 41)) (?v_97 (distinct (- (+ (* 39 x3) (* 36 x10)) (* 40 x14)) (- 27))) (?v_82 (< (- (- (* 3 x3) (* 57 x7)) (* 25 x16)) (- 29))) (?v_87 (<= (- (+ (* (- 2) x6) (* 43 x10)) (* 10 x17)) (- 39)))) (let ((?v_134 (not ?v_87)) (?v_186 (< (* 6 x33) (- 49)))) (let ((?v_127 (not ?v_186)) (?v_106 (not ?v_38)) (?v_148 (<= (+ (* 15 x8) (* 37 x39) (* 12 x5)) (- 25)))) (let ((?v_165 (not ?v_148)) (?v_201 (<= (- (- (* 55 x16) (* 15 x24)) x30) (- 40)))) (let ((?v_170 (not ?v_201)) (?v_163 (not ?v_97)) (?v_153 (< (+ (- 0 (* 37 x3)) (* 24 x34)) (- 36))) (?v_141 (not ?v_96))) (let ((?v_197 (or P22 ?v_141)) (?v_121 (not ?v_82)) (?v_118 (= (+ (* (- 33) x5) (* 42 x17) (* 47 x26)) 57)) (?v_142 (<= (- (- (* (- 17) x24) (* 17 x25)) (* 8 x24)) 21))) (let ((?v_128 (not ?v_142)) (?v_202 (not ?v_135)) (?v_187 (not ?v_153)) (?v_190 (not ?v_101)) (?v_195 (not ?v_118))) (and (and (and (and (and (and (and (and (and (and (and (and (and (and (and (and (and (and (and (and (and (and (and (and (and (and (and (and (and (and (and (and (and (and (and (and (and (and (and (and (and (and (and (and (and (and (and (and (and (and (and (and (and (and (and (and (and (and (and (and (and (and (and (and (and (and (and (and (and (and (and (and (and (and (and (and (and (and (and (and (and (and (and (and (and (and (and (and (and (and (and (and (and (and (and (and (and (and (and (and (and (and (and (and (and (and (and (and (and (and (and (and (and (and (and (and (and (and (and (and (and (and (and (and (and (and (and (and (and (and (and (and (and (and (and (and (and (and (and (and (and (and (and (and (and (and (and (and (and (and (and (and (and (and (and (and (and (and (and (and (and (and (and (and (and (and (and (and (and (and (and (and (and (and (and (and (and (and (and (and (and (and (and (and (and (and (and (and (and (and (and (and (and (and (and (and (and (and (and (and (and (and (and (and (and (and (and (and (and (and (and (and (and (and (and (and (and (and (and (and (and (and (and (and (and (and (and (and (and (and (and (and (and (and (and (and (and (and (and (and (and (and (and (and (and (and (and (and (and (and (and (and (and (and (and (and (and (and (and (and (and (and (and (and (and (and (and (and (and (and (and (and (and (and (and (and (and (and (and (and (and (and (and (and (and (and (and (and (and (and (and (and (and (and (and (and (and (and (and (and (and (and (and (and (and (and (and (and (and (and (and (and (and (and (and (and (and (and (and (and (and (and (and (and (and (and (and (and (and (and (and (and (and (and (and (and (and (and (and (and (and (and (and (and (and (and (and (and (and (and (and (and (and (and (and (and (and (and (and (and (and (and (and (and (and (and (and (and (and (and (and (and (and (and (and (and (and (and (and (and (and (and (and (and (and (and (and (and (and (and (and (and (and (and (and (and (and (and (and (and (and (and (and (and (and (and (and (and (and (and (and (and (and (and (and (and (and (and (and (and (and (and (and (and (and (and (and (and (and (and (and (and (and (and (and (and (and (and (and (and (and (and (and (and (and (and (and (and (and (and (and (and (and (and (and (and (and (and (and (and (and (and (and (and (and (and (and (and (and (and (and (and (and (and (and (and (and (and (and (or (or ?v_40 ?v_115) ?v_140) (or (or ?v_10 ?v_2) ?v_0)) (or (or ?v_136 ?v_104) P14)) (or (or ?v_15 ?v_12) ?v_3)) (or (or ?v_37 ?v_0) ?v_6)) (or (or P26 ?v_53) ?v_126)) (or (or ?v_5 ?v_1) ?v_11)) (or (or ?v_1 ?v_9) ?v_2)) (or (or ?v_25 ?v_45) ?v_56)) (or (or ?v_196 ?v_3) ?v_4)) (or (or ?v_101 ?v_28) ?v_5)) (or (or ?v_7 P27) ?v_6)) (or (or ?v_61 ?v_55) ?v_27)) (or (or ?v_69 ?v_9) ?v_3)) (or (or ?v_20 ?v_10) ?v_19)) (or (or ?v_86 P28) ?v_164)) (or (or ?v_39 P39) ?v_51)) (or (or ?v_12 ?v_36) ?v_16)) (or (or ?v_137 ?v_17) ?v_14)) (or (or ?v_81 ?v_57) ?v_26)) (or (or ?v_96 P19) P32)) (or (or ?v_15 ?v_60) P24)) (or (or ?v_125 ?v_16) ?v_42)) (or (or ?v_114 ?v_144) P29)) (or (or ?v_138 ?v_18) ?v_66)) (or (or P32 ?v_9) ?v_72)) (or (or ?v_22 P38) ?v_38)) (or (or ?v_122 P1) ?v_48)) (or (or ?v_47 ?v_18) ?v_19)) (or (or P30 ?v_20) ?v_54)) (or (or ?v_21 ?v_23) ?v_43)) (or (or ?v_65 ?v_24) ?v_159)) (or (or ?v_22 ?v_111) ?v_24)) (or (or ?v_132 ?v_25) ?v_131)) (or (or ?v_79 ?v_27) ?v_46)) (or (or ?v_29 ?v_59) P8)) (or (or ?v_52 ?v_33) ?v_34)) (or (or ?v_35 ?v_36) ?v_109)) (or (or P10 ?v_37) ?v_38)) (or (or ?v_70 ?v_38) ?v_40)) (or (or ?v_89 ?v_123) ?v_107)) (or (or ?v_37 ?v_88) ?v_84)) (or (or ?v_92 P38) ?v_43)) (or (or ?v_44 ?v_77) ?v_166)) (or (or ?v_45 ?v_46) P6)) (or (or ?v_12 P2) ?v_180)) (or (or ?v_48 ?v_16) P34)) (or (or ?v_74 ?v_168) ?v_58)) (or (or ?v_50 ?v_76) P2)) (or (or ?v_62 ?v_151) ?v_50)) (or (or ?v_108 ?v_158) ?v_51)) (or (or ?v_52 ?v_162) ?v_117)) (or (or ?v_54 ?v_55) ?v_56)) (or (or ?v_135 ?v_45) ?v_37)) (or ?v_204 ?v_58)) (or (or ?v_59 ?v_60) ?v_19)) (or (or ?v_61 P37) ?v_62)) (or (or ?v_100 ?v_113) ?v_65)) (or (or ?v_37 P24) P12)) (or (or ?v_57 ?v_156) ?v_67)) (or (or ?v_102 ?v_17) P3)) (or (or ?v_69 ?v_70) ?v_59)) (or (or ?v_66 ?v_14) ?v_143)) (or (or ?v_71 ?v_37) ?v_78)) (or (or ?v_73 ?v_75) ?v_74)) (or (or ?v_56 ?v_97) ?v_82)) (or (or P18 ?v_134) ?v_16)) (or (or ?v_75 ?v_90) ?v_76)) (or (or ?v_77 ?v_25) ?v_78)) (or (or ?v_79 ?v_58) ?v_44)) (or (or ?v_48 ?v_127) ?v_80)) (or (or ?v_11 P21) ?v_81)) (or (or ?v_35 P5) ?v_82)) (or (or ?v_83 P15) ?v_84)) (or (or P29 P39) P25)) (or (or P12 ?v_22) ?v_85)) (or (or ?v_93 ?v_91) ?v_58)) (or (or ?v_99 ?v_167) ?v_116)) (or (or ?v_87 ?v_88) ?v_145)) (or (or ?v_90 ?v_91) ?v_106)) (or (or ?v_20 ?v_92) ?v_165)) (or (or ?v_130 ?v_129) P8)) (or (or ?v_55 ?v_93) ?v_91)) (or (or ?v_170 ?v_94) ?v_95)) (or (or ?v_96 ?v_163) ?v_98)) (or (or ?v_0 ?v_175) ?v_83)) (or (or ?v_96 ?v_37) ?v_7)) (or (or ?v_173 ?v_99) ?v_33)) (or (or ?v_100 ?v_18) ?v_101)) (or (or ?v_102 ?v_34) ?v_93)) (or (or ?v_103 ?v_77) ?v_10)) (or (or ?v_66 ?v_17) P19)) (or (or ?v_39 ?v_5) ?v_25)) (or (or ?v_84 ?v_71) ?v_153)) (or ?v_197 ?v_104)) (or (or ?v_86 ?v_121) ?v_161)) (or (or ?v_53 ?v_105) ?v_96)) (or (or ?v_106 ?v_22) ?v_80)) (or (or ?v_79 ?v_107) ?v_108)) (or (or ?v_109 ?v_45) P25)) (or (or ?v_77 ?v_85) ?v_5)) (or (or ?v_23 ?v_178) P27)) (or (or ?v_55 ?v_147) ?v_10)) (or (or P35 ?v_52) ?v_110)) (or (or ?v_101 ?v_110) ?v_73)) (or (or ?v_76 ?v_55) ?v_86)) (or (or ?v_106 ?v_111) ?v_112)) (or (or ?v_139 P32) ?v_109)) (or (or ?v_106 P12) ?v_62)) (or (or ?v_113 ?v_5) ?v_106)) (or (or ?v_114 ?v_118) P33)) (or (or ?v_104 ?v_115) ?v_114)) (or (or ?v_11 ?v_116) ?v_191)) (or (or ?v_21 ?v_99) ?v_117)) (or (or ?v_42 ?v_19) ?v_2)) (or (or ?v_15 ?v_99) ?v_120)) (or (or ?v_133 ?v_10) ?v_118)) (or (or ?v_98 P17) ?v_119)) (or (or ?v_120 P37) ?v_77)) (or (or P3 ?v_59) P12)) (or (or ?v_47 ?v_113) ?v_117)) (or (or ?v_83 ?v_128) P36)) (or (or ?v_121 ?v_77) ?v_122)) (or (or ?v_123 P12) ?v_124)) (or (or ?v_109 P3) ?v_125)) (or (or ?v_74 ?v_20) ?v_6)) (or (or ?v_56 ?v_160) ?v_122)) (or (or ?v_172 ?v_126) ?v_127)) (or (or ?v_149 ?v_2) ?v_128)) (or (or ?v_0 ?v_82) ?v_93)) (or (or ?v_2 P13) ?v_150)) (or (or ?v_56 ?v_171) ?v_45)) (or (or ?v_11 P33) ?v_94)) (or (or P18 ?v_154) ?v_116)) (or (or ?v_53 ?v_130) ?v_96)) (or (or P8 ?v_118) ?v_131)) (or (or ?v_198 ?v_19) ?v_72)) (or (or ?v_113 ?v_194) ?v_53)) (or (or ?v_113 ?v_48) P0)) (or (or P8 ?v_38) ?v_88)) (or (or ?v_110 P14) ?v_132)) (or (or ?v_52 ?v_146) P10)) (or (or ?v_134 ?v_103) ?v_202)) (or (or ?v_20 ?v_70) P16)) (or (or ?v_123 ?v_34) ?v_136)) (or (or ?v_53 ?v_113) ?v_93)) (or (or P10 ?v_60) ?v_15)) (or (or ?v_137 ?v_138) P15)) (or (or ?v_139 ?v_42) ?v_152)) (or (or ?v_116 ?v_44) ?v_99)) (or (or ?v_16 ?v_140) ?v_105)) (or (or ?v_121 P37) ?v_29)) (or (or ?v_55 ?v_72) ?v_157)) (or (or P23 P39) ?v_55)) (or (or ?v_103 ?v_109) ?v_104)) (or (or ?v_141 ?v_131) ?v_76)) (or (or ?v_80 ?v_95) ?v_200)) (or (or ?v_142 ?v_66) ?v_79)) (or (or P30 ?v_61) ?v_143)) (or (or ?v_144 ?v_99) P0)) (or (or ?v_57 ?v_121) ?v_114)) (or (or ?v_145 ?v_89) ?v_133)) (or (or ?v_128 ?v_146) ?v_147)) (or (or P34 ?v_144) ?v_148)) (or (or ?v_149 ?v_104) P18)) (or (or ?v_150 ?v_101) P3)) (or (or ?v_97 ?v_148) ?v_151)) (or (or ?v_53 ?v_152) ?v_0)) (or (or ?v_88 P34) ?v_14)) (or (or ?v_12 ?v_187) ?v_116)) (or (or ?v_40 ?v_4) ?v_21)) (or (or ?v_24 P12) ?v_131)) (or (or ?v_115 P21) P18)) (or (or ?v_53 ?v_117) ?v_3)) (or (or ?v_19 ?v_149) ?v_60)) (or (or P18 ?v_131) ?v_154)) (or (or ?v_81 ?v_155) P22)) (or (or ?v_98 ?v_117) ?v_86)) (or (or ?v_142 ?v_89) ?v_42)) (or (or ?v_147 ?v_44) ?v_153)) (or (or ?v_124 ?v_12) ?v_16)) (or (or ?v_90 P6) ?v_135)) (or (or ?v_156 ?v_37) P17)) (or (or ?v_47 ?v_83) ?v_140)) (or (or ?v_157 ?v_158) ?v_188)) (or (or ?v_147 ?v_108) ?v_93)) (or (or ?v_159 ?v_42) ?v_107)) (or (or ?v_106 ?v_128) ?v_206)) (or (or ?v_112 P16) (not P39))) (or (or ?v_57 ?v_176) ?v_144)) (or (or ?v_65 ?v_19) ?v_3)) (or (or P4 ?v_93) ?v_39)) (or (or ?v_155 ?v_98) ?v_140)) (or (or ?v_78 ?v_71) ?v_84)) (or (or ?v_127 P14) ?v_160)) (or (or P4 ?v_3) ?v_76)) (or (or ?v_122 ?v_87) (not P0))) (or (or ?v_161 ?v_130) ?v_162)) (or (or ?v_182 ?v_132) ?v_163)) (or (or ?v_140 ?v_108) ?v_111)) (or (or ?v_94 ?v_101) ?v_62)) (or (or ?v_86 ?v_65) ?v_15)) (or (or ?v_95 ?v_164) P37)) (or (or ?v_55 ?v_115) ?v_102)) (or (or ?v_81 ?v_48) ?v_120)) (or (or ?v_93 ?v_16) ?v_143)) (or (or P20 P36) P13)) (or (or ?v_133 ?v_53) P18)) (or (or ?v_203 ?v_101) ?v_88)) (or (or ?v_84 ?v_47) ?v_156)) (or (or ?v_60 ?v_66) ?v_148)) (or (or ?v_87 ?v_110) ?v_61)) (or (or ?v_1 P11) P35)) (or (or ?v_47 ?v_6) ?v_89)) (or (or ?v_109 ?v_18) ?v_106)) (or (or ?v_136 ?v_165) ?v_55)) (or (or ?v_12 P4) P35)) (or (or ?v_70 ?v_193) ?v_144)) (or (or ?v_179 P11) ?v_140)) (or (or ?v_154 ?v_79) ?v_0)) (or (or ?v_20 ?v_5) ?v_107)) (or (or P25 ?v_138) ?v_167)) (or (or P6 ?v_126) ?v_161)) (or (or ?v_168 ?v_163) ?v_52)) (or (or ?v_115 ?v_161) ?v_169)) (or (or ?v_28 ?v_158) ?v_145)) (or (or ?v_115 ?v_157) ?v_102)) (or (or ?v_170 P17) ?v_171)) (or (or ?v_5 ?v_149) ?v_86)) (or (or ?v_3 ?v_128) ?v_57)) (or (or ?v_172 ?v_114) ?v_70)) (or (or P23 (not ?v_192)) ?v_156)) (or (or ?v_106 ?v_158) ?v_173)) (or (or P14 ?v_128) ?v_109)) (or (or ?v_50 ?v_123) P18)) (or (or ?v_174 ?v_160) ?v_175)) (or (or P15 P14) ?v_36)) (or (or ?v_111 ?v_176) P22)) (or (or ?v_156 ?v_27) ?v_40)) (or (or ?v_58 ?v_190) ?v_145)) (or (or ?v_108 ?v_84) ?v_53)) (or (or ?v_100 ?v_124) ?v_147)) (or (or ?v_89 ?v_27) ?v_135)) (or (or ?v_119 P28) ?v_136)) (or (or ?v_109 ?v_76) ?v_177)) (or (or ?v_181 ?v_100) ?v_151)) (or (or ?v_86 ?v_98) ?v_172)) (or (or ?v_146 ?v_26) ?v_4)) (or (or P29 ?v_12) ?v_72)) (or (or ?v_47 ?v_178) ?v_16)) (or (or ?v_155 ?v_110) ?v_163)) (or (or ?v_170 ?v_150) ?v_126)) (or (or ?v_64 ?v_165) ?v_22)) (or (or P0 ?v_6) ?v_132)) (or (or ?v_58 P35) P26)) (or (or ?v_0 ?v_147) ?v_178)) (or (or ?v_166 ?v_5) ?v_177)) (or (or ?v_137 ?v_18) ?v_90)) (or (or ?v_176 ?v_126) ?v_89)) (or (or ?v_132 ?v_0) ?v_21)) (or (or ?v_169 P4) ?v_16)) (or (or ?v_174 ?v_177) ?v_6)) (or (or ?v_74 P25) P5)) (or (or ?v_141 P3) ?v_168)) (or (or ?v_195 ?v_11) ?v_62)) (or (or ?v_4 ?v_107) ?v_125)) (or (or ?v_56 ?v_56) P37)) (or (or ?v_121 ?v_103) ?v_179)) (or (or P35 ?v_106) ?v_119)) (or (or ?v_125 ?v_180) ?v_7)) (or (or ?v_131 ?v_92) P7)) (or (or ?v_90 ?v_85) ?v_172)) (or (or ?v_175 ?v_79) ?v_92)) (or (or P23 ?v_104) ?v_59)) (or (or ?v_170 ?v_181) ?v_45)) (or (or ?v_182 ?v_177) ?v_6)) (or (or P16 ?v_69) ?v_15)) (or (or P11 ?v_121) P15)) (or (or ?v_173 ?v_96) ?v_139)) (or (or P3 ?v_183) ?v_48)) (or (or ?v_144 ?v_184) ?v_45)) (or (or ?v_29 ?v_169) ?v_65)) (or (or ?v_73 ?v_185) ?v_169)) (or (or ?v_169 ?v_58) ?v_186)) (or (or P24 ?v_114) ?v_166)) (or (or P3 ?v_82) ?v_177)) (or (or ?v_97 ?v_67) P9)) (or (or ?v_170 ?v_42) ?v_162)) (or (or ?v_72 ?v_120) ?v_187)) (or (or P25 ?v_114) ?v_33)) (or (or P33 ?v_52) ?v_135)) (or (or ?v_167 ?v_154) ?v_105)) (or (or ?v_114 ?v_142) ?v_171)) (or (or ?v_132 P7) ?v_148)) (or (or ?v_167 ?v_188) ?v_149)) (or (or ?v_36 ?v_103) ?v_152)) (or (or ?v_2 ?v_177) P16)) (or (or ?v_60 ?v_153) ?v_18)) (or (or ?v_44 ?v_14) ?v_79)) (or (or ?v_171 ?v_52) ?v_20)) (or (or ?v_189 ?v_20) P18)) (or (or ?v_128 ?v_94) ?v_64)) (or (or ?v_67 ?v_93) ?v_150)) (or (or ?v_162 ?v_165) ?v_19)) (or (or ?v_104 ?v_179) ?v_164)) (or (or ?v_174 ?v_50) ?v_167)) (or (or ?v_89 P10) ?v_137)) (or (or ?v_158 ?v_89) P39)) (or (or ?v_141 ?v_190) ?v_155)) (or (or ?v_140 ?v_109) ?v_101)) (or (or ?v_151 ?v_94) ?v_104)) (or (or ?v_159 P23) P31)) (or (or P26 ?v_175) ?v_26)) (or (or P30 ?v_118) ?v_38)) (or (or ?v_161 ?v_4) ?v_176)) (or (or ?v_153 ?v_108) ?v_191)) (or (or ?v_55 ?v_128) ?v_12)) (or (or ?v_27 ?v_103) ?v_161)) (or (or ?v_167 ?v_24) P12)) (or (or ?v_142 ?v_190) ?v_20)) (or (or P8 ?v_77) ?v_76)) (or (or ?v_61 ?v_133) ?v_83)) (or (or ?v_83 ?v_122) ?v_101)) (or (or ?v_89 ?v_50) ?v_34)) (or (or P34 ?v_78) ?v_112)) (or (or ?v_164 ?v_178) ?v_121)) (or (or P19 ?v_93) ?v_180)) (or (or ?v_12 ?v_175) ?v_143)) (or (or ?v_121 ?v_11) ?v_15)) (or (or ?v_26 ?v_80) ?v_166)) (or (or P12 ?v_192) ?v_94)) (or (or ?v_101 P16) ?v_186)) (or (or ?v_136 ?v_193) ?v_59)) (or (or ?v_78 ?v_109) ?v_145)) (or (or (not ?v_75) P8) P10)) (or (or ?v_140 ?v_131) ?v_43)) (or (or ?v_45 ?v_194) ?v_107)) (or (or ?v_5 ?v_131) ?v_100)) (or (or ?v_183 ?v_71) ?v_83)) (or (or P33 ?v_164) ?v_119)) (or (or ?v_74 P31) ?v_122)) (or (or ?v_140 ?v_95) ?v_165)) (or (or ?v_142 ?v_94) ?v_80)) (or (or P38 ?v_91) ?v_170)) (or (or ?v_195 ?v_194) ?v_196)) (or ?v_197 ?v_173)) (or (or ?v_25 P12) ?v_95)) (or (or P11 ?v_104) ?v_130)) (or (or ?v_160 P2) ?v_97)) (or (or P26 ?v_66) ?v_166)) (or (or ?v_140 ?v_190) ?v_81)) (or (or ?v_151 ?v_38) P39)) (or (or ?v_28 ?v_56) ?v_61)) (or (or ?v_149 ?v_181) ?v_66)) (or (or ?v_101 ?v_179) ?v_26)) (or (or P27 ?v_87) P18)) (or (or ?v_6 ?v_198) ?v_129)) (or (or ?v_125 ?v_40) ?v_76)) (or (or ?v_138 P24) ?v_188)) (or (or ?v_199 ?v_152) ?v_3)) (or (or ?v_21 P25) P18)) (or (or ?v_145 ?v_101) ?v_57)) (or (or ?v_137 ?v_26) ?v_107)) (or (or ?v_136 ?v_196) ?v_163)) (or (or ?v_15 ?v_137) ?v_102)) (or (or ?v_36 ?v_173) ?v_109)) (or (or ?v_138 ?v_188) ?v_109)) (or (or ?v_85 ?v_170) ?v_196)) (or (or P12 ?v_25) P33)) (or (or ?v_187 ?v_125) ?v_176)) (or (or ?v_161 ?v_92) ?v_81)) (or (or ?v_192 ?v_81) ?v_195)) (or (or ?v_195 ?v_43) P12)) (or (or P13 ?v_134) ?v_2)) (or (or ?v_99 P31) ?v_16)) (or (or ?v_146 ?v_159) P25)) (or (or ?v_181 ?v_61) ?v_25)) (or (or ?v_167 ?v_23) ?v_55)) (or (or ?v_108 ?v_7) ?v_160)) (or (or P8 P4) ?v_128)) (or (or ?v_190 ?v_172) ?v_46)) (or (or ?v_22 ?v_33) ?v_177)) (or (or ?v_129 ?v_114) ?v_200)) (or (or P32 ?v_179) ?v_110)) (or (or ?v_161 ?v_27) ?v_82)) (or (or ?v_170 ?v_36) ?v_150)) (or (or ?v_6 ?v_182) ?v_25)) (or (or ?v_195 ?v_145) ?v_82)) (or (or ?v_121 ?v_5) P32)) (or (or P28 P14) ?v_103)) (or (or ?v_38 ?v_187) ?v_36)) (or (or ?v_147 ?v_192) ?v_166)) (or (or ?v_107 ?v_144) ?v_138)) (or (or ?v_135 ?v_50) ?v_157)) (or (or P5 ?v_124) ?v_145)) (or (or ?v_29 ?v_172) ?v_4)) (or (or ?v_93 ?v_161) ?v_33)) (or (or ?v_34 ?v_69) ?v_4)) (or (or ?v_190 P11) P21)) (or (or P18 ?v_187) ?v_23)) (or (or ?v_112 ?v_198) ?v_73)) (or (or ?v_52 ?v_15) ?v_137)) (or (or P17 ?v_12) P36)) (or (or ?v_192 ?v_157) ?v_117)) (or (or ?v_113 ?v_198) ?v_108)) (or (or ?v_166 ?v_28) ?v_92)) (or (or ?v_166 ?v_188) ?v_71)) (or (or ?v_122 ?v_90) ?v_188)) (or (or ?v_183 P39) ?v_62)) (or (or ?v_184 ?v_133) ?v_137)) (or (or ?v_55 ?v_52) ?v_46)) (or (or ?v_128 P20) P12)) (or (or ?v_130 P9) ?v_177)) (or (or ?v_24 ?v_60) ?v_79)) (or (or P14 ?v_90) ?v_116)) (or (or ?v_171 ?v_28) ?v_155)) (or (or P16 ?v_156) ?v_85)) (or (or ?v_154 ?v_59) ?v_115)) (or (or ?v_96 ?v_62) ?v_187)) (or (or ?v_57 ?v_134) ?v_88)) (or (or P0 ?v_194) ?v_201)) (or (or ?v_14 ?v_0) ?v_79)) (or (or P25 ?v_169) ?v_144)) (or (or P31 ?v_92) ?v_104)) (or (or ?v_53 ?v_94) ?v_119)) (or (or ?v_180 ?v_29) ?v_18)) (or (or ?v_198 ?v_53) P29)) (or (or ?v_134 ?v_202) ?v_69)) (or (or P5 P11) P25)) (or (or ?v_98 P4) ?v_45)) (or (or ?v_203 ?v_200) ?v_14)) (or (or ?v_4 ?v_82) ?v_178)) (or (or ?v_129 ?v_184) ?v_1)) (or (or ?v_109 ?v_143) ?v_105)) (or (or ?v_158 ?v_99) ?v_27)) (or (or ?v_143 ?v_59) ?v_189)) (or (or ?v_80 ?v_125) P9)) (or (or ?v_187 P38) ?v_126)) (or (or ?v_64 ?v_108) ?v_199)) (or (or ?v_175 ?v_170) ?v_45)) (or (or ?v_190 ?v_38) ?v_91)) (or (or ?v_175 ?v_205) ?v_178)) (or ?v_204 ?v_205)) (or (or ?v_206 P27) P1)) (or (or ?v_192 ?v_92) ?v_128)) (or (or ?v_140 ?v_167) P16)) (or (or ?v_123 ?v_52) ?v_113)) (or (or ?v_186 ?v_74) ?v_72)) (or (or ?v_37 P30) ?v_169)) (or (or ?v_97 ?v_84) ?v_192)) (or (or ?v_87 ?v_28) ?v_105)) (or (or ?v_130 P35) ?v_148)) (or (or ?v_159 ?v_162) ?v_141)) (or (or ?v_131 ?v_16) ?v_53)) (or (or P34 ?v_181) ?v_22)) (or (or ?v_39 P31) ?v_143)) (or (or ?v_157 P34) ?v_0)) (or (or ?v_83 ?v_152) ?v_97)) (or (or ?v_59 ?v_116) ?v_124)) (or (or ?v_109 ?v_87) P19)) (or (or ?v_5 ?v_156) P31)) (or (or ?v_101 P10) ?v_11)) (or (or ?v_130 ?v_21) P12)) (or (or ?v_104 ?v_61) ?v_78)) (or (or ?v_100 ?v_132) ?v_42)) (or (or ?v_69 ?v_154) P12)) (or (or ?v_58 ?v_128) ?v_33)) (or (or ?v_138 ?v_4) ?v_178)) (or (or ?v_74 ?v_83) ?v_102)) (or (or ?v_135 ?v_77) ?v_134)) (or (or ?v_173 ?v_139) ?v_55)) (or (or ?v_135 ?v_26) ?v_52)) (or (or ?v_21 ?v_179) ?v_38)) (or (or ?v_192 P14) ?v_176)) (or (or P4 ?v_17) ?v_48)) (or (or ?v_117 P39) P16)) (or (or ?v_190 ?v_140) ?v_54)) (or (or ?v_42 P21) P17)) (or (or ?v_84 ?v_74) ?v_135)) (or (or ?v_24 ?v_45) ?v_121))))))))))))))))))))))))))))
(check-sat)
(exit)
